db/data/2514817234011118222019313379165913766.z3.out
-------------------
2500.135736302
